(set-info :smt-lib-version 2.6)
(set-logic AUFBVFPDTNIRA)
(set-info :source |
Generated by: AdaCore
Generated on: 2020-03-06
Generator: SPARK
Application: Program verification for Ada
Target solver: CVC4
|)
(set-info :license "https://creativecommons.org/licenses/by/4.0/")
(set-info :category "industrial")
(set-info :status unknown)
;;; generated by SMT-LIB2 driver
;;; SMT-LIB2 driver: bit-vectors, common part
;;; SMT-LIB2: integer arithmetic
(declare-sort string 0)

(declare-datatypes ((tuple0 0))
(((Tuple0))))
(declare-sort us_private 0)

(declare-fun private__bool_eq (us_private us_private) Bool)

(declare-const us_null_ext__ us_private)

(declare-sort us_type_of_heap 0)

(declare-datatypes ((us_type_of_heap__ref 0))
(((us_type_of_heap__refqtmk (us_type_of_heap__content us_type_of_heap)))))
(declare-sort us_image 0)

(declare-datatypes ((int__ref 0))
(((int__refqtmk (int__content Int)))))
(declare-datatypes ((bool__ref 0))
(((bool__refqtmk (bool__content Bool)))))
(declare-datatypes ((us_fixed__ref 0))
(((us_fixed__refqtmk (us_fixed__content Int)))))
(declare-datatypes ((real__ref 0))
(((real__refqtmk (real__content Real)))))
(declare-datatypes ((us_private__ref 0))
(((us_private__refqtmk (us_private__content us_private)))))
(define-fun int__ref___projection ((a int__ref)) Int (int__content a))

(define-fun us_fixed__ref___projection ((a us_fixed__ref)) Int (us_fixed__content
                                                               a))

(define-fun bool__ref___projection ((a bool__ref)) Bool (bool__content a))

(define-fun real__ref___projection ((a real__ref)) Real (real__content a))

(define-fun us_private__ref___projection ((a us_private__ref)) us_private 
  (us_private__content a))

(declare-sort integer 0)

(declare-fun integerqtint (integer) Int)

;; integer'axiom
  (assert
  (forall ((i integer))
  (and (<= (- 2147483648) (integerqtint i)) (<= (integerqtint i) 2147483647))))

(define-fun in_range ((x Int)) Bool (and (<= (- 2147483648) x)
                                    (<= x 2147483647)))

(declare-fun attr__ATTRIBUTE_IMAGE (Int) us_image)

(declare-fun attr__ATTRIBUTE_VALUE__pre_check (us_image) Bool)

(declare-fun attr__ATTRIBUTE_VALUE (us_image) Int)

(declare-fun user_eq (integer integer) Bool)

(declare-const dummy integer)

(declare-datatypes ((integer__ref 0))
(((integer__refqtmk (integer__content integer)))))
(define-fun integer__ref_integer__content__projection ((a integer__ref)) integer 
  (integer__content a))

(declare-sort positive 0)

(declare-fun positiveqtint (positive) Int)

;; positive'axiom
  (assert
  (forall ((i positive))
  (and (<= 1 (positiveqtint i)) (<= (positiveqtint i) 2147483647))))

(define-fun in_range1 ((x Int)) Bool (and (<= 1 x) (<= x 2147483647)))

(declare-fun attr__ATTRIBUTE_IMAGE1 (Int) us_image)

(declare-fun attr__ATTRIBUTE_VALUE__pre_check1 (us_image) Bool)

(declare-fun attr__ATTRIBUTE_VALUE1 (us_image) Int)

(declare-fun user_eq1 (positive positive) Bool)

(declare-const dummy1 positive)

(declare-datatypes ((positive__ref 0))
(((positive__refqtmk (positive__content positive)))))
(define-fun positive__ref_positive__content__projection ((a positive__ref)) positive 
  (positive__content a))

(define-fun dynamic_invariant ((temp___expr_46 Int) (temp___is_init_42 Bool)
  (temp___skip_constant_43 Bool) (temp___do_toplevel_44 Bool)
  (temp___do_typ_inv_45 Bool)) Bool (=>
                                    (or (= temp___is_init_42 true)
                                    (<= 1 2147483647)) (in_range1
                                    temp___expr_46)))

(define-fun to_rep ((x integer)) Int (integerqtint x))

(declare-fun of_rep (Int) integer)

;; inversion_axiom
  (assert
  (forall ((x integer)) (! (= (of_rep (to_rep x)) x) :pattern ((to_rep x)) )))

;; range_axiom
  (assert
  (forall ((x integer)) (! (in_range (to_rep x)) :pattern ((to_rep x)) )))

;; coerce_axiom
  (assert
  (forall ((x Int))
  (! (=> (in_range x) (= (to_rep (of_rep x)) x)) :pattern ((to_rep
                                                           (of_rep x))) )))

(declare-const attr__ATTRIBUTE_ADDRESS Int)

(declare-const g Int)

(declare-const attr__ATTRIBUTE_ADDRESS1 Int)

(declare-sort natural 0)

(declare-fun naturalqtint (natural) Int)

;; natural'axiom
  (assert
  (forall ((i natural))
  (and (<= 0 (naturalqtint i)) (<= (naturalqtint i) 2147483647))))

(define-fun in_range2 ((x Int)) Bool (and (<= 0 x) (<= x 2147483647)))

(declare-fun attr__ATTRIBUTE_IMAGE2 (Int) us_image)

(declare-fun attr__ATTRIBUTE_VALUE__pre_check2 (us_image) Bool)

(declare-fun attr__ATTRIBUTE_VALUE2 (us_image) Int)

(declare-fun user_eq2 (natural natural) Bool)

(declare-const dummy2 natural)

(declare-datatypes ((natural__ref 0))
(((natural__refqtmk (natural__content natural)))))
(define-fun natural__ref_natural__content__projection ((a natural__ref)) natural 
  (natural__content a))

(define-fun to_rep1 ((x natural)) Int (naturalqtint x))

(declare-fun of_rep1 (Int) natural)

;; inversion_axiom
  (assert
  (forall ((x natural))
  (! (= (of_rep1 (to_rep1 x)) x) :pattern ((to_rep1 x)) )))

;; range_axiom
  (assert
  (forall ((x natural)) (! (in_range2 (to_rep1 x)) :pattern ((to_rep1 x)) )))

;; coerce_axiom
  (assert
  (forall ((x Int))
  (! (=> (in_range2 x) (= (to_rep1 (of_rep1 x)) x)) :pattern ((to_rep1
                                                              (of_rep1 x))) )))

(declare-sort map1 0)

(declare-datatypes ((map__ref 0))
(((map__refqtmk (map__content map1)))))
(declare-fun get (map1 Int Int) natural)

(declare-fun set (map1 Int Int natural) map1)

;; Select_eq
  (assert
  (forall ((m map1))
  (forall ((i Int))
  (forall ((j Int))
  (forall ((a natural))
  (! (= (get (set m i j a) i j) a) :pattern ((set m i j a)) ))))))

;; Select_neq
  (assert
  (forall ((m map1))
  (forall ((i Int) (i2 Int))
  (forall ((j Int) (j2 Int))
  (forall ((a natural))
  (! (=> (not (and (= i i2) (= j j2)))
     (= (get (set m i j a) i2 j2) (get m i2 j2))) :pattern ((get
                                                            (set m i j a) i2
                                                            j2)) :pattern (
  (set m i j a) (get m i2 j2)) ))))))

(declare-fun slide (map1 Int Int Int Int) map1)

;; slide_def
  (assert
  (forall ((a map1))
  (forall ((new_first Int) (old_first Int))
  (forall ((new_first_2 Int) (old_first_2 Int))
  (forall ((i Int))
  (forall ((j Int))
  (! (= (get (slide a old_first new_first old_first_2 new_first_2) i j) 
  (get a (- i (- new_first old_first)) (- j (- new_first_2 old_first_2)))) :pattern (
  (get (slide a old_first new_first old_first_2 new_first_2) i j)) )))))))

(define-fun bool_eq ((a map1) (a__first Int) (a__last Int) (a__first_2 Int)
  (a__last_2 Int) (b map1) (b__first Int) (b__last Int) (b__first_2 Int)
  (b__last_2 Int)) Bool (ite (and
                             (and
                             (ite (<= a__first a__last)
                             (and (<= b__first b__last)
                             (= (- a__last a__first) (- b__last b__first)))
                             (< b__last b__first))
                             (ite (<= a__first_2 a__last_2)
                             (and (<= b__first_2 b__last_2)
                             (= (- a__last_2 a__first_2) (- b__last_2 b__first_2)))
                             (< b__last_2 b__first_2)))
                             (forall ((temp___idx_154 Int)
                             (temp___idx_155 Int))
                             (=>
                             (and
                             (and (<= a__first temp___idx_154)
                             (<= temp___idx_154 a__last))
                             (and (<= a__first_2 temp___idx_155)
                             (<= temp___idx_155 a__last_2)))
                             (= (to_rep1
                                (get a temp___idx_154 temp___idx_155)) 
                             (to_rep1
                             (get b (+ (- b__first a__first) temp___idx_154)
                             (+ (- b__first_2 a__first_2) temp___idx_155)))))))
                        true false))

;; bool_eq_rev
  (assert
  (forall ((a map1) (b map1))
  (forall ((a__first Int) (a__last Int) (a__first_2 Int) (a__last_2 Int)
  (b__first Int) (b__last Int) (b__first_2 Int) (b__last_2 Int))
  (=>
  (= (bool_eq b b__first b__last b__first_2 b__last_2 a a__first a__last
     a__first_2 a__last_2) true)
  (and
  (and
  (ite (<= a__first a__last)
  (and (<= b__first b__last) (= (- a__last a__first) (- b__last b__first)))
  (< b__last b__first))
  (ite (<= a__first_2 a__last_2)
  (and (<= b__first_2 b__last_2)
  (= (- a__last_2 a__first_2) (- b__last_2 b__first_2)))
  (< b__last_2 b__first_2)))
  (forall ((temp___idx_154 Int) (temp___idx_155 Int))
  (=>
  (and (and (<= a__first temp___idx_154) (<= temp___idx_154 a__last))
  (and (<= a__first_2 temp___idx_155) (<= temp___idx_155 a__last_2)))
  (= (to_rep1 (get a temp___idx_154 temp___idx_155)) (to_rep1
                                                     (get b
                                                     (+ (- b__first a__first) temp___idx_154)
                                                     (+ (- b__first_2 a__first_2) temp___idx_155)))))))))))

(declare-fun new_m (tuple0) map1)

(declare-fun new_m__function_guard (map1 tuple0) Bool)

;; new_m__post_axiom
  (assert true)

(declare-const b__first integer)

(declare-const b__last integer)

(declare-const b__first_2 integer)

(declare-const b__last_2 integer)

(declare-const attr__ATTRIBUTE_ADDRESS2 Int)

(declare-sort my_pos 0)

(declare-fun my_posqtint (my_pos) Int)

;; my_pos'axiom
  (assert
  (forall ((i my_pos)) (and (<= 1 (my_posqtint i)) (<= (my_posqtint i) 100))))

(define-fun in_range3 ((x Int)) Bool (and (<= 1 x) (<= x 100)))

(declare-fun attr__ATTRIBUTE_IMAGE3 (Int) us_image)

(declare-fun attr__ATTRIBUTE_VALUE__pre_check3 (us_image) Bool)

(declare-fun attr__ATTRIBUTE_VALUE3 (us_image) Int)

(declare-fun user_eq3 (my_pos my_pos) Bool)

(declare-const dummy3 my_pos)

(declare-datatypes ((my_pos__ref 0))
(((my_pos__refqtmk (my_pos__content my_pos)))))
(define-fun my_pos__ref_my_pos__content__projection ((a my_pos__ref)) my_pos 
  (my_pos__content a))

(define-fun dynamic_invariant1 ((temp___expr_161 Int)
  (temp___is_init_157 Bool) (temp___skip_constant_158 Bool)
  (temp___do_toplevel_159 Bool)
  (temp___do_typ_inv_160 Bool)) Bool (=>
                                     (or (= temp___is_init_157 true)
                                     (<= 1 100)) (in_range3 temp___expr_161)))

(declare-sort tTbSP1 0)

(declare-fun tTbSP1qtint (tTbSP1) Int)

;; tTbSP1'axiom
  (assert
  (forall ((i tTbSP1)) (and (<= 1 (tTbSP1qtint i)) (<= (tTbSP1qtint i) 3))))

(define-fun in_range4 ((x Int)) Bool (and (<= 1 x) (<= x 3)))

(declare-fun attr__ATTRIBUTE_IMAGE4 (Int) us_image)

(declare-fun attr__ATTRIBUTE_VALUE__pre_check4 (us_image) Bool)

(declare-fun attr__ATTRIBUTE_VALUE4 (us_image) Int)

(declare-fun user_eq4 (tTbSP1 tTbSP1) Bool)

(declare-const dummy4 tTbSP1)

(declare-datatypes ((tTbSP1__ref 0))
(((tTbSP1__refqtmk (tTbSP1__content tTbSP1)))))
(define-fun tTbSP1__ref_tTbSP1__content__projection ((a tTbSP1__ref)) tTbSP1 
  (tTbSP1__content a))

(declare-sort t 0)

(declare-fun first (t) integer)

(declare-fun last (t) integer)

(declare-fun mk (Int Int) t)

;; mk_def
  (assert
  (forall ((f Int) (l Int))
  (! (=> (in_range f)
     (=> (in_range l)
     (and (= (to_rep (first (mk f l))) f) (= (to_rep (last (mk f l))) l)))) :pattern (
  (mk f l)) )))

(define-fun dynamic_property ((range_first Int) (range_last Int) (low Int)
  (high Int)) Bool (and (in_range low)
                   (and (in_range high)
                   (=> (<= low high) (and (in_range1 low) (in_range1 high))))))

(declare-sort t1 0)

(declare-fun first1 (t1) integer)

(declare-fun last1 (t1) integer)

(declare-fun mk1 (Int Int) t1)

;; mk_def
  (assert
  (forall ((f Int) (l Int))
  (! (=> (in_range f)
     (=> (in_range l)
     (and (= (to_rep (first1 (mk1 f l))) f) (= (to_rep (last1 (mk1 f l))) l)))) :pattern (
  (mk1 f l)) )))

(define-fun dynamic_property1 ((range_first Int) (range_last Int) (low Int)
  (high Int)) Bool (and (in_range low)
                   (and (in_range high)
                   (=> (<= low high) (and (in_range1 low) (in_range1 high))))))

(declare-datatypes ((us_t 0))
(((us_tqtmk (elts map1)(rt t)(rt_2 t1)))))
(define-fun to_array ((a us_t)) map1 (elts a))

(define-fun of_array ((a map1) (f Int) (l Int) (f2 Int)
  (l2 Int)) us_t (us_tqtmk a (mk f l) (mk1 f2 l2)))

(define-fun first2 ((a us_t)) Int (to_rep (first (rt a))))

(define-fun last2 ((a us_t)) Int (to_rep (last (rt a))))

(define-fun length ((a us_t)) Int (ite (<= (first2 a) (last2 a))
                                  (+ (- (last2 a) (first2 a)) 1) 0))

(define-fun first_2 ((a us_t)) Int (to_rep (first1 (rt_2 a))))

(define-fun last_2 ((a us_t)) Int (to_rep (last1 (rt_2 a))))

(define-fun length_2 ((a us_t)) Int (ite (<= (first_2 a) (last_2 a))
                                    (+ (- (last_2 a) (first_2 a)) 1) 0))

(define-fun dynamic_property2 ((range_first1 Int) (range_last1 Int) (f1 Int)
  (l1 Int) (range_first2 Int) (range_last2 Int) (f2 Int)
  (l2 Int)) Bool (and (dynamic_property range_first1 range_last1 f1 l1)
                 (dynamic_property1 range_first2 range_last2 f2 l2)))

(declare-const value__size Int)

(declare-const object__size Int)

(declare-const component__size Int)

(declare-const alignment Int)

;; value__size_axiom
  (assert (<= 0 value__size))

;; object__size_axiom
  (assert (<= 0 object__size))

;; component__size_axiom
  (assert (<= 0 component__size))

;; alignment_axiom
  (assert (<= 0 alignment))

(define-fun bool_eq1 ((x us_t)
  (y us_t)) Bool (bool_eq (elts x) (to_rep (first (rt x)))
                 (to_rep (last (rt x))) (to_rep (first1 (rt_2 x)))
                 (to_rep (last1 (rt_2 x))) (elts y) (to_rep (first (rt y)))
                 (to_rep (last (rt y))) (to_rep (first1 (rt_2 y)))
                 (to_rep (last1 (rt_2 y)))))

(declare-fun user_eq5 (us_t us_t) Bool)

(declare-const dummy5 us_t)

(declare-datatypes ((m__ref 0))
(((m__refqtmk (m__content us_t)))))
(define-fun m__ref_m__content__projection ((a m__ref)) us_t (m__content a))

(declare-datatypes ((tbS__ref 0))
(((tbS__refqtmk (tbS__content us_t)))))
(define-fun tbS__ref_tbS__content__projection ((a tbS__ref)) us_t (tbS__content
                                                                  a))

(declare-sort tmmP1 0)

(declare-fun tmmP1qtint (tmmP1) Int)

;; tmmP1'axiom
  (assert
  (forall ((i tmmP1)) (and (<= 1 (tmmP1qtint i)) (<= (tmmP1qtint i) 3))))

(define-fun in_range5 ((x Int)) Bool (and (<= 1 x) (<= x 3)))

(declare-fun attr__ATTRIBUTE_IMAGE5 (Int) us_image)

(declare-fun attr__ATTRIBUTE_VALUE__pre_check5 (us_image) Bool)

(declare-fun attr__ATTRIBUTE_VALUE5 (us_image) Int)

(declare-fun user_eq6 (tmmP1 tmmP1) Bool)

(declare-const dummy6 tmmP1)

(declare-datatypes ((tmmP1__ref 0))
(((tmmP1__refqtmk (tmmP1__content tmmP1)))))
(define-fun tmmP1__ref_tmmP1__content__projection ((a tmmP1__ref)) tmmP1 
  (tmmP1__content a))

(declare-sort tmmP2 0)

(declare-fun tmmP2qtint (tmmP2) Int)

;; tmmP2'axiom
  (assert
  (forall ((i tmmP2)) (and (<= 1 (tmmP2qtint i)) (<= (tmmP2qtint i) 3))))

(define-fun in_range6 ((x Int)) Bool (and (<= 1 x) (<= x 3)))

(declare-fun attr__ATTRIBUTE_IMAGE6 (Int) us_image)

(declare-fun attr__ATTRIBUTE_VALUE__pre_check6 (us_image) Bool)

(declare-fun attr__ATTRIBUTE_VALUE6 (us_image) Int)

(declare-fun user_eq7 (tmmP2 tmmP2) Bool)

(declare-const dummy7 tmmP2)

(declare-datatypes ((tmmP2__ref 0))
(((tmmP2__refqtmk (tmmP2__content tmmP2)))))
(define-fun tmmP2__ref_tmmP2__content__projection ((a tmmP2__ref)) tmmP2 
  (tmmP2__content a))

(define-fun dynamic_invariant2 ((temp___expr_39 Int) (temp___is_init_35 Bool)
  (temp___skip_constant_36 Bool) (temp___do_toplevel_37 Bool)
  (temp___do_typ_inv_38 Bool)) Bool (=>
                                    (or (= temp___is_init_35 true)
                                    (<= 0 2147483647)) (in_range2
                                    temp___expr_39)))

(define-fun dynamic_invariant3 ((temp___expr_18 Int) (temp___is_init_14 Bool)
  (temp___skip_constant_15 Bool) (temp___do_toplevel_16 Bool)
  (temp___do_typ_inv_17 Bool)) Bool (=>
                                    (or (= temp___is_init_14 true)
                                    (<= (- 2147483648) 2147483647)) (in_range
                                    temp___expr_18)))

(define-fun dynamic_invariant4 ((temp___expr_175 us_t)
  (temp___is_init_171 Bool) (temp___skip_constant_172 Bool)
  (temp___do_toplevel_173 Bool)
  (temp___do_typ_inv_174 Bool)) Bool (=>
                                     (not (= temp___skip_constant_172 true))
                                     (and
                                     (and (dynamic_property2 1 3
                                     (first2 temp___expr_175)
                                     (last2 temp___expr_175) g (+ g 2)
                                     (first_2 temp___expr_175)
                                     (last_2 temp___expr_175))
                                     (and (= (first2 temp___expr_175) 1)
                                     (= (last2 temp___expr_175) 3)))
                                     (and (= (first_2 temp___expr_175) 
                                     g) (= (last_2 temp___expr_175) (+ 
                                     g 2))))))

(define-fun default_initial_assumption ((temp___expr_178 us_t)
  (temp___skip_top_level_179 Bool)) Bool (and
                                         (and
                                         (and (= (first2 temp___expr_178) 1)
                                         (= (last2 temp___expr_178) 3))
                                         (= (first_2 temp___expr_178) 
                                         g))
                                         (= (last_2 temp___expr_178) (+ 
                                         g 2))))

(assert
;; defqtvc
 ;; File "array_types.ads", line 2, characters 0-0
  (not
  (forall ((x Int))
  (=> (dynamic_invariant1 x true false true true)
  (=> (= x g)
  (=> (dynamic_invariant g true false true true)
  (=> (<= g (+ g 2)) (<= 1 g))))))))
(check-sat)
